# Objective value = 84
WA1n 0
WA1p 0
WA2n 1
WA2p 0
WB1n 0
WB1p 0
WB2n 1
WB2p 0
WC1n 1
WC1p 0
WD1n 1
WD1p 0
WE1n 1
WE1p 0
WF1n 1
WF1p 0
WG1n 4
WG1p 0
WG2n 1
WG2p 0
WH1n 0
WH1p 5
WH2n 0
WH2p 1
WI1n 10
WI1p 0
WJ1n 0
WJ1p 10
WK1n 0
WK1p 25
WK2n 0
WK2p 1
WT1n 0
WT1p 16
5 7
a 0
b 0
c 0
d 0
e 0
f 0
g 0
h 0
i 0
j 0
k 1
l 1
m 0
n 1
o 1
p 1
q 1
